(set-logic LIA)

(synth-fun insert ((i Int) (isPresent Int) (min Int) (max Int) (len Int) (isPresent1 Int) (min1 Int) (max1 Int) (len1 Int)) Bool ((Start Bool) (Expr Int)) ((Start Bool ((<= Expr Expr)(>= Expr Expr)(= Expr Expr)(and Start Start)(or Start Start)(not Start)))(Expr Int ((+ Expr Expr)(- Expr Expr) i isPresent min max len isPresent1 min1 max1 len1))))
(synth-fun remove ((k Int) (len Int) (len1 Int) (ret1 Int)) Bool ((Start Bool) (Expr Int)) ((Start Bool ((<= Expr Expr)(>= Expr Expr)(= Expr Expr)(and Start Start)(or Start Start)(not Start)))(Expr Int ((+ Expr Expr)(- Expr Expr) k len len1 ret1))))
(synth-fun inv1 ((i Int) (N Int) (isPresent Int) (min Int) (max Int) (len Int)) Bool ((Start Bool) (Expr Int)) ((Start Bool ((<= Expr Expr)(>= Expr Expr)(= Expr Expr)(and Start Start)(or Start Start)(not Start)))(Expr Int ((+ Expr Expr)(- Expr Expr) i N isPresent min max len))))

(declare-var N Int)
(declare-var i Int)
(declare-var i1 Int)
(declare-var min Int)
(declare-var min1 Int)
(declare-var max Int)
(declare-var max1 Int)
(declare-var isPresent Int)
(declare-var isPresent1 Int)
(declare-var len Int)
(declare-var len1 Int)
(declare-var ret1 Int)
(declare-var k Int)
(define-fun MIN () Int -129)
(define-fun MAX () Int 128)

(constraint (=> (and (> N 0) (= min MAX) (= max MIN) (= len 0) (= isPresent 0) (= i 0)) (inv1 i N isPresent min max len)))
(constraint (=> (and (inv1 i N isPresent min max len) (or (= isPresent 1) (= isPresent 0)) (< i N) (insert i isPresent min max len isPresent1 min1 max1 len1) (= i1 (+ i 1))) (inv1 i1 N isPresent1 min1 max1 len1)))
(constraint (=> (and (inv1 i N isPresent min max len) (or (= isPresent 1) (= isPresent 0)) (not (< i N)) (<= 0 k) (< k N) (remove k len len1 ret1)) (= len1 (- len 1))))

(check-synth)